% Escenario 3:
% - 3 plantas
% - 2 clientes
% - 3 días
% Se incrementa el requisito mínimo (G=70%) y se cambian costos/capacidades levemente.

p = 3;
m = 2;
n = 3;

plantNames = ["Nuclear", "Hidroelectrica", "Termica"];
clientNames = ["ClienteA", "ClienteB"];

cost = [35.0, 20.0, 45.0];
capacity = [900, 350, 400];
payment = [110.0, 115.0];

demand = array2d(1..m, 1..n, [
  100, 100, 100,
  120, 120, 120
]);

G = 0.70;

highThreshold = [0.8, 0.7, 0.85];
maxConsecutiveHigh = [2, 1, 1];
